CMD:
./solvers/bin/cadical --plain --no-reduce -t 1600 ./data/cnfs//vgasim_imgfifo-p066/vgasim_imgfifo-p066.28.cnf

c --- [ banner ] -------------------------------------------------------------
c 
c CaDiCaL SAT Solver
c Copyright (c) 2016-2024
c A. Biere, M. Fleury, N. Froleyks, K. Fazekas, F. Pollitt, T. Faller
c JKU Linz, University of Freiburg, TU Wien
c 
c Version 2.1.3 5296d3d2a9bf48c154ab2acb5e44625776d821bf
c g++ (Gentoo 12.3.1_p20230526 p2) 12.3.1 20230526 -Wall -Wextra -O3 -DNDEBUG
c Sat Aug 9 07:26:21 PDT 2025 Linux cedar2.int.cedar.computecanada.ca 5.14.0-362.24.2.el9_3.x86_64 x86_64
c 
c --- [ limit ] --------------------------------------------------------------
c 
c setting time limit to 1600 seconds real time (due to '-t 1600')
c 
c --- [ parsing input ] ------------------------------------------------------
c 
c reading DIMACS file from './data/cnfs//vgasim_imgfifo-p066/vgasim_imgfifo-p066.28.cnf'
c opening file to read './data/cnfs//vgasim_imgfifo-p066/vgasim_imgfifo-p066.28.cnf'
c found 'p cnf 139015 400202' header
c parsed 400202 clauses in 0.08 seconds process time
c 
c --- [ options ] ------------------------------------------------------------
c 
c   --compact=false                (different from default 'true')
c   --decompose=false              (different from default 'true')
c   --deduplicate=false            (different from default 'true')
c   --elim=false                   (different from default 'true')
c   --probe=false                  (different from default 'true')
c   --reduce=false                 (different from default 'true')
c   --subsume=false                (different from default 'true')
c   --ternary=false                (different from default 'true')
c   --transred=false               (different from default 'true')
c   --vivify=false                 (different from default 'true')
c 
c --- [ solving ] ------------------------------------------------------------
c 
c time measured in process time since initialization
c 
c  seconds  reductions  redundant  irredundant
c         MB    restarts       trail       variables
c          level   conflicts       glue          remaining
c 
c *  0.08 63  0 0   0    0    0  0% 0 366063 105142 76%
c {  0.09 64  0 0   0    0    0  0% 0 366063 105142 76%
c i  0.10 65 66 0   1   58   50 32% 3 366063 105123 76%
c }  0.11 65 64 0   1   64   52 33% 3 366063 103984 75%
c 0  0.11 65 64 0   1   64   52 33% 3 366063 103984 75%
c 
c --- [ result ] -------------------------------------------------------------
c 
s UNSATISFIABLE
c 
c --- [ run-time profiling ] -------------------------------------------------
c 
c process time taken by individual solving procedures
c (percentage relative to process time for solving)
c 
c         0.08  257.61% parse
c         0.03   99.53% search
c         0.02   65.82% unstable
c         0.01   33.46% lucky
c         0.00    0.00% simplify
c   =================================
c         0.03   27.78% solve
c 
c last line shows process time for solving
c (percentage relative to total process time)
c 
c --- [ statistics ] ---------------------------------------------------------
c 
c chronological:                17        26.56 %  of conflicts
c conflicts:                    64      2191.86    per second
c decisions:                   310     10616.80    per second
c fixed:                     34984        25.17 %  of all variables
c learned:                      61        95.31 %  per conflict
c learned_lits:                773       100.00 %  learned literals
c minimized:                     0         0.00 %  learned literals
c shrunken:                    142        18.37 %  learned literals
c minishrunken:                139        17.98 %  learned literals
c otfs:                          1         1.56 %  of conflict
c propagations:             199036         6.82 M  per second
c restarts:                      1        64.00    interval
c subsumed:                      6         0.00 %  of all clauses
c strengthened:                  1         0.00 %  of all clauses
c 
c seconds are measured in process time for solving
c 
c --- [ resources ] ----------------------------------------------------------
c 
c total process time since initialization:         0.11    seconds
c total real time since initialization:            0.11    seconds
c maximum resident set size of process:           62.95    MB
c 
c --- [ shutting down ] ------------------------------------------------------
c 
c exit 20
